NAME: Random ATSP Instance
TYPE: ATSP
DIMENSION: 12
EDGE_WEIGHT_TYPE: EXPLICIT
EDGE_WEIGHT_FORMAT: FULL_MATRIX
EDGE_WEIGHT_SECTION
9999 16 4 4 13 15 17 14 11 6 18 19
9 9999 17 5 10 18 1 3 5 2 3 14
15 1 9999 15 18 18 17 15 14 1 7 6
7 10 10 9999 9 18 20 11 11 12 17 6
5 1 17 19 9999 10 2 2 14 5 2 8
7 17 11 9 1 9999 17 19 8 20 14 20
7 16 14 7 1 9 9999 19 9 17 7 4
3 13 19 18 15 7 3 9999 19 3 8 12
18 16 6 7 18 4 3 12 9999 11 4 15
15 17 14 13 17 20 15 2 17 9999 9 16
13 13 8 15 17 10 10 15 15 4 9999 6
10 14 19 2 13 2 1 7 8 15 9 9999
EOF
